3 
4 
5  03 23 44 57 
6  14 30 46 
7  01 16 31 46 
8  01 16 31 46 
9  01 16 32 47 
10  02 17 32 46 
11  01 16 31 46 
12  01 16 31 46 
13  01 16 31 46 
14  01 16 31 46 
15  01 16 31 46 
16  01 16 31 46 
17  01 16 31 46 
18  01 16 31 46 
19  01 16 31 46 
20  01 16 34 49 
21  04 18 34 49 
22  04 19 34 49 
23  03 21 
0 
